&CONTROL
   tstress          = .true.
   tprnfor          = .true.
/
&SYSTEM
   ntyp             = 2
   nat              = 2
   ibrav            = 0
/
&ELECTRONS
/
&IONS
/
&CELL
/

ATOMIC_SPECIES
Na 22.98976928 Na.pbe-spn-kjpaw_psl.0.2.UPF
Cl 35.45 Cl.pbe-n-kjpaw_psl.0.3.0.UPF

K_POINTS automatic
3 3 3  0 0 0

CELL_PARAMETERS angstrom
0.00000000000000 2.85609522874252 2.85609522874252
2.85609522874252 0.00000000000000 2.85609522874252
2.85609522874252 2.85609522874252 0.00000000000000

ATOMIC_POSITIONS angstrom
Na 0.0000000000 0.0000000000 0.0000000000 
Cl 2.8560952287 0.0000000000 -0.0000000000 

