#************************************************************************************
#*                  Generated by cif2cell 1.2.10 2019-06-29 10:11                   *
#*  T. Bjorkman, Comp. Phys. Commun. 182, 1183-1186 (2011). Please cite generously. *
#*                                                                                  *
#*                                   LiNiO2   ()                                    *
#*             Failed to get author information, No journal information             *
#************************************************************************************

&SYSTEM
  ibrav = 0
  A =    5.07202
  nat = 4
  ntyp = 3
/
CELL_PARAMETERS {alat}
  1.000000000000000   0.000000000000000   0.000000000000000 
  0.836301242074196   0.548270218510140   0.000000000000000 
  0.836301242074196   0.249697083586569   0.488110232379448 
ATOMIC_SPECIES
  Ni   58.69340  Ni_PSEUDO
   O   15.99900   O_PSEUDO
  Li    6.96750  Li_PSEUDO
ATOMIC_POSITIONS {crystal}
Ni   0.000000000000000   0.000000000000000   0.000000000000000 
 O   0.741937000000000   0.741937000000000   0.741937000000000 
 O   0.258063000000000   0.258063000000000   0.258063000000000 
Li   0.500000000000000   0.500000000000000   0.500000000000000 

# k-space resolution ~0.2/A.
K_POINTS automatic
13 13 13  0 0 0
